% Auto-generated by scripts/generate_dzn.py
% problem_type   = regex
% instance       = regex_36
% source_json    = instances_json/2_high_blowup/regex_36.json
% blowup         = 99.8125
% representation = DFA

mode = 0;

var_count = 20;
Q = 1597;
S = 2;
q0 = 1;
F = {988, 989, 990, 991, 992, 993, 994, 995, 996, 997, 998, 999, 1000, 1001, 1002, 1003, 1004, 1005, 1006, 1007, 1008, 1009, 1010, 1011, 1012, 1013, 1014, 1015, 1016, 1017, 1018, 1019, 1020, 1021, 1022, 1023, 1024, 1025, 1026, 1027, 1028, 1029, 1030, 1031, 1032, 1033, 1034, 1035, 1036, 1037, 1038, 1039, 1040, 1041, 1042, 1043, 1044, 1045, 1046, 1047, 1048, 1049, 1050, 1051, 1052, 1053, 1054, 1055, 1056, 1057, 1058, 1059, 1060, 1061, 1062, 1063, 1064, 1065, 1066, 1067, 1068, 1069, 1070, 1071, 1072, 1073, 1074, 1075, 1076, 1077, 1078, 1079, 1080, 1081, 1082, 1083, 1084, 1085, 1086, 1087, 1088, 1089, 1090, 1091, 1092, 1093, 1094, 1095, 1096, 1097, 1098, 1099, 1100, 1101, 1102, 1103, 1104, 1105, 1106, 1107, 1108, 1109, 1110, 1111, 1112, 1113, 1114, 1115, 1116, 1117, 1118, 1119, 1120, 1121, 1122, 1123, 1124, 1125, 1126, 1127, 1128, 1129, 1130, 1131, 1132, 1133, 1134, 1135, 1136, 1137, 1138, 1139, 1140, 1141, 1142, 1143, 1144, 1145, 1146, 1147, 1148, 1149, 1150, 1151, 1152, 1153, 1154, 1155, 1156, 1157, 1158, 1159, 1160, 1161, 1162, 1163, 1164, 1165, 1166, 1167, 1168, 1169, 1170, 1171, 1172, 1173, 1174, 1175, 1176, 1177, 1178, 1179, 1180, 1181, 1182, 1183, 1184, 1185, 1186, 1187, 1188, 1189, 1190, 1191, 1192, 1193, 1194, 1195, 1196, 1197, 1198, 1199, 1200, 1201, 1202, 1203, 1204, 1205, 1206, 1207, 1208, 1209, 1210, 1211, 1212, 1213, 1214, 1215, 1216, 1217, 1218, 1219, 1220, 1221, 1222, 1223, 1224, 1225, 1226, 1227, 1228, 1229, 1230, 1231, 1232, 1233, 1234, 1235, 1236, 1237, 1238, 1239, 1240, 1241, 1242, 1243, 1244, 1245, 1246, 1247, 1248, 1249, 1250, 1251, 1252, 1253, 1254, 1255, 1256, 1257, 1258, 1259, 1260, 1261, 1262, 1263, 1264, 1265, 1266, 1267, 1268, 1269, 1270, 1271, 1272, 1273, 1274, 1275, 1276, 1277, 1278, 1279, 1280, 1281, 1282, 1283, 1284, 1285, 1286, 1287, 1288, 1289, 1290, 1291, 1292, 1293, 1294, 1295, 1296, 1297, 1298, 1299, 1300, 1301, 1302, 1303, 1304, 1305, 1306, 1307, 1308, 1309, 1310, 1311, 1312, 1313, 1314, 1315, 1316, 1317, 1318, 1319, 1320, 1321, 1322, 1323, 1324, 1325, 1326, 1327, 1328, 1329, 1330, 1331, 1332, 1333, 1334, 1335, 1336, 1337, 1338, 1339, 1340, 1341, 1342, 1343, 1344, 1345, 1346, 1347, 1348, 1349, 1350, 1351, 1352, 1353, 1354, 1355, 1356, 1357, 1358, 1359, 1360, 1361, 1362, 1363, 1364, 1365, 1366, 1367, 1368, 1369, 1370, 1371, 1372, 1373, 1374, 1375, 1376, 1377, 1378, 1379, 1380, 1381, 1382, 1383, 1384, 1385, 1386, 1387, 1388, 1389, 1390, 1391, 1392, 1393, 1394, 1395, 1396, 1397, 1398, 1399, 1400, 1401, 1402, 1403, 1404, 1405, 1406, 1407, 1408, 1409, 1410, 1411, 1412, 1413, 1414, 1415, 1416, 1417, 1418, 1419, 1420, 1421, 1422, 1423, 1424, 1425, 1426, 1427, 1428, 1429, 1430, 1431, 1432, 1433, 1434, 1435, 1436, 1437, 1438, 1439, 1440, 1441, 1442, 1443, 1444, 1445, 1446, 1447, 1448, 1449, 1450, 1451, 1452, 1453, 1454, 1455, 1456, 1457, 1458, 1459, 1460, 1461, 1462, 1463, 1464, 1465, 1466, 1467, 1468, 1469, 1470, 1471, 1472, 1473, 1474, 1475, 1476, 1477, 1478, 1479, 1480, 1481, 1482, 1483, 1484, 1485, 1486, 1487, 1488, 1489, 1490, 1491, 1492, 1493, 1494, 1495, 1496, 1497, 1498, 1499, 1500, 1501, 1502, 1503, 1504, 1505, 1506, 1507, 1508, 1509, 1510, 1511, 1512, 1513, 1514, 1515, 1516, 1517, 1518, 1519, 1520, 1521, 1522, 1523, 1524, 1525, 1526, 1527, 1528, 1529, 1530, 1531, 1532, 1533, 1534, 1535, 1536, 1537, 1538, 1539, 1540, 1541, 1542, 1543, 1544, 1545, 1546, 1547, 1548, 1549, 1550, 1551, 1552, 1553, 1554, 1555, 1556, 1557, 1558, 1559, 1560, 1561, 1562, 1563, 1564, 1565, 1566, 1567, 1568, 1569, 1570, 1571, 1572, 1573, 1574, 1575, 1576, 1577, 1578, 1579, 1580, 1581, 1582, 1583, 1584, 1585, 1586, 1587, 1588, 1589, 1590, 1591, 1592, 1593, 1594, 1595, 1596, 1597};
d_dfa = array2d(1..1597, 1..2, [
  2, 1,
  2, 3,
  5, 4,
  7, 6,
  7, 8,
  10, 9,
  10, 11,
  13, 12,
  15, 14,
  15, 16,
  18, 17,
  20, 19,
  20, 21,
  23, 22,
  23, 24,
  26, 25,
  28, 27,
  28, 29,
  31, 30,
  31, 32,
  34, 33,
  36, 35,
  36, 37,
  39, 38,
  41, 40,
  41, 42,
  44, 43,
  44, 45,
  47, 46,
  49, 48,
  49, 50,
  52, 51,
  54, 53,
  54, 55,
  57, 56,
  57, 58,
  60, 59,
  62, 61,
  62, 63,
  65, 64,
  65, 66,
  68, 67,
  70, 69,
  70, 71,
  73, 72,
  75, 74,
  75, 76,
  78, 77,
  78, 79,
  81, 80,
  83, 82,
  83, 84,
  86, 85,
  86, 87,
  89, 88,
  91, 90,
  91, 92,
  94, 93,
  96, 95,
  96, 97,
  99, 98,
  99, 100,
  102, 101,
  104, 103,
  104, 105,
  107, 106,
  109, 108,
  109, 110,
  112, 111,
  112, 113,
  115, 114,
  117, 116,
  117, 118,
  120, 119,
  120, 121,
  123, 122,
  125, 124,
  125, 126,
  128, 127,
  130, 129,
  130, 131,
  133, 132,
  133, 134,
  136, 135,
  138, 137,
  138, 139,
  141, 140,
  143, 142,
  143, 144,
  146, 145,
  146, 147,
  149, 148,
  151, 150,
  151, 152,
  154, 153,
  154, 155,
  157, 156,
  159, 158,
  159, 160,
  162, 161,
  164, 163,
  164, 165,
  167, 166,
  167, 168,
  170, 169,
  172, 171,
  172, 173,
  175, 174,
  175, 176,
  178, 177,
  180, 179,
  180, 181,
  183, 182,
  185, 184,
  185, 186,
  188, 187,
  188, 189,
  191, 190,
  193, 192,
  193, 194,
  196, 195,
  198, 197,
  198, 199,
  201, 200,
  201, 202,
  204, 203,
  206, 205,
  206, 207,
  209, 208,
  209, 210,
  212, 211,
  214, 213,
  214, 215,
  217, 216,
  219, 218,
  219, 220,
  222, 221,
  222, 223,
  225, 224,
  227, 226,
  227, 228,
  230, 229,
  230, 231,
  233, 232,
  235, 234,
  235, 236,
  238, 237,
  240, 239,
  240, 241,
  243, 242,
  243, 244,
  246, 245,
  248, 247,
  248, 249,
  251, 250,
  253, 252,
  253, 254,
  256, 255,
  256, 257,
  259, 258,
  261, 260,
  261, 262,
  264, 263,
  264, 265,
  267, 266,
  269, 268,
  269, 270,
  272, 271,
  274, 273,
  274, 275,
  277, 276,
  277, 278,
  280, 279,
  282, 281,
  282, 283,
  285, 284,
  287, 286,
  287, 288,
  290, 289,
  290, 291,
  293, 292,
  295, 294,
  295, 296,
  298, 297,
  298, 299,
  301, 300,
  303, 302,
  303, 304,
  306, 305,
  308, 307,
  308, 309,
  311, 310,
  311, 312,
  314, 313,
  316, 315,
  316, 317,
  319, 318,
  319, 320,
  322, 321,
  324, 323,
  324, 325,
  327, 326,
  329, 328,
  329, 330,
  332, 331,
  332, 333,
  335, 334,
  337, 336,
  337, 338,
  340, 339,
  342, 341,
  342, 343,
  345, 344,
  345, 346,
  348, 347,
  350, 349,
  350, 351,
  353, 352,
  353, 354,
  356, 355,
  358, 357,
  358, 359,
  361, 360,
  363, 362,
  363, 364,
  366, 365,
  366, 367,
  369, 368,
  371, 370,
  371, 372,
  374, 373,
  376, 375,
  376, 377,
  379, 378,
  379, 380,
  382, 381,
  384, 383,
  384, 385,
  387, 386,
  387, 388,
  390, 389,
  392, 391,
  392, 393,
  395, 394,
  397, 396,
  397, 398,
  400, 399,
  400, 401,
  403, 402,
  405, 404,
  405, 406,
  408, 407,
  408, 409,
  411, 410,
  413, 412,
  413, 414,
  416, 415,
  418, 417,
  418, 419,
  421, 420,
  421, 422,
  424, 423,
  426, 425,
  426, 427,
  429, 428,
  431, 430,
  431, 432,
  434, 433,
  434, 435,
  437, 436,
  439, 438,
  439, 440,
  442, 441,
  442, 443,
  445, 444,
  447, 446,
  447, 448,
  450, 449,
  452, 451,
  452, 453,
  455, 454,
  455, 456,
  458, 457,
  460, 459,
  460, 461,
  463, 462,
  463, 464,
  466, 465,
  468, 467,
  468, 469,
  471, 470,
  473, 472,
  473, 474,
  476, 475,
  476, 477,
  479, 478,
  481, 480,
  481, 482,
  484, 483,
  486, 485,
  486, 487,
  489, 488,
  489, 490,
  492, 491,
  494, 493,
  494, 495,
  497, 496,
  497, 498,
  500, 499,
  502, 501,
  502, 503,
  505, 504,
  507, 506,
  507, 508,
  510, 509,
  510, 511,
  513, 512,
  515, 514,
  515, 516,
  518, 517,
  520, 519,
  520, 521,
  523, 522,
  523, 524,
  526, 525,
  528, 527,
  528, 529,
  531, 530,
  531, 532,
  534, 533,
  536, 535,
  536, 537,
  539, 538,
  541, 540,
  541, 542,
  544, 543,
  544, 545,
  547, 546,
  549, 548,
  549, 550,
  552, 551,
  552, 553,
  555, 554,
  557, 556,
  557, 558,
  560, 559,
  562, 561,
  562, 563,
  565, 564,
  565, 566,
  568, 567,
  570, 569,
  570, 571,
  573, 572,
  575, 574,
  575, 576,
  578, 577,
  578, 579,
  581, 580,
  583, 582,
  583, 584,
  586, 585,
  586, 587,
  589, 588,
  591, 590,
  591, 592,
  594, 593,
  596, 595,
  596, 597,
  599, 598,
  599, 600,
  602, 601,
  604, 603,
  604, 605,
  607, 606,
  607, 608,
  610, 609,
  612, 611,
  612, 613,
  615, 614,
  617, 616,
  617, 618,
  620, 619,
  620, 621,
  623, 622,
  625, 624,
  625, 626,
  628, 627,
  630, 629,
  630, 631,
  633, 632,
  633, 634,
  636, 635,
  638, 637,
  638, 639,
  641, 640,
  641, 642,
  644, 643,
  646, 645,
  646, 647,
  649, 648,
  651, 650,
  651, 652,
  654, 653,
  654, 655,
  657, 656,
  659, 658,
  659, 660,
  662, 661,
  664, 663,
  664, 665,
  667, 666,
  667, 668,
  670, 669,
  672, 671,
  672, 673,
  675, 674,
  675, 676,
  678, 677,
  680, 679,
  680, 681,
  683, 682,
  685, 684,
  685, 686,
  688, 687,
  688, 689,
  691, 690,
  693, 692,
  693, 694,
  696, 695,
  696, 697,
  699, 698,
  701, 700,
  701, 702,
  704, 703,
  706, 705,
  706, 707,
  709, 708,
  709, 710,
  712, 711,
  714, 713,
  714, 715,
  717, 716,
  719, 718,
  719, 720,
  722, 721,
  722, 723,
  725, 724,
  727, 726,
  727, 728,
  730, 729,
  730, 731,
  733, 732,
  735, 734,
  735, 736,
  738, 737,
  740, 739,
  740, 741,
  743, 742,
  743, 744,
  746, 745,
  748, 747,
  748, 749,
  751, 750,
  753, 752,
  753, 754,
  756, 755,
  756, 757,
  759, 758,
  761, 760,
  761, 762,
  764, 763,
  764, 765,
  767, 766,
  769, 768,
  769, 770,
  772, 771,
  774, 773,
  774, 775,
  777, 776,
  777, 778,
  780, 779,
  782, 781,
  782, 783,
  785, 784,
  785, 786,
  788, 787,
  790, 789,
  790, 791,
  793, 792,
  795, 794,
  795, 796,
  798, 797,
  798, 799,
  801, 800,
  803, 802,
  803, 804,
  806, 805,
  808, 807,
  808, 809,
  811, 810,
  811, 812,
  814, 813,
  816, 815,
  816, 817,
  819, 818,
  819, 820,
  822, 821,
  824, 823,
  824, 825,
  827, 826,
  829, 828,
  829, 830,
  832, 831,
  832, 833,
  835, 834,
  837, 836,
  837, 838,
  840, 839,
  840, 841,
  843, 842,
  845, 844,
  845, 846,
  848, 847,
  850, 849,
  850, 851,
  853, 852,
  853, 854,
  856, 855,
  858, 857,
  858, 859,
  861, 860,
  863, 862,
  863, 864,
  866, 865,
  866, 867,
  869, 868,
  871, 870,
  871, 872,
  874, 873,
  874, 875,
  877, 876,
  879, 878,
  879, 880,
  882, 881,
  884, 883,
  884, 885,
  887, 886,
  887, 888,
  890, 889,
  892, 891,
  892, 893,
  895, 894,
  897, 896,
  897, 898,
  900, 899,
  900, 901,
  903, 902,
  905, 904,
  905, 906,
  908, 907,
  908, 909,
  911, 910,
  913, 912,
  913, 914,
  916, 915,
  918, 917,
  918, 919,
  921, 920,
  921, 922,
  924, 923,
  926, 925,
  926, 927,
  929, 928,
  929, 930,
  932, 931,
  934, 933,
  934, 935,
  937, 936,
  939, 938,
  939, 940,
  942, 941,
  942, 943,
  945, 944,
  947, 946,
  947, 948,
  950, 949,
  952, 951,
  952, 953,
  955, 954,
  955, 956,
  958, 957,
  960, 959,
  960, 961,
  963, 962,
  963, 964,
  966, 965,
  968, 967,
  968, 969,
  971, 970,
  973, 972,
  973, 974,
  976, 975,
  976, 977,
  979, 978,
  981, 980,
  981, 982,
  984, 983,
  986, 985,
  986, 987,
  989, 988,
  989, 990,
  992, 991,
  994, 993,
  994, 995,
  997, 996,
  997, 998,
  1000, 999,
  1002, 1001,
  1002, 1003,
  1005, 1004,
  1007, 1006,
  1007, 1008,
  1010, 1009,
  1010, 1011,
  1013, 1012,
  1015, 1014,
  1015, 1016,
  1018, 1017,
  1018, 1019,
  1021, 1020,
  1023, 1022,
  1023, 1024,
  1026, 1025,
  1028, 1027,
  1028, 1029,
  1031, 1030,
  1031, 1032,
  1034, 1033,
  1036, 1035,
  1036, 1037,
  1039, 1038,
  1041, 1040,
  1041, 1042,
  1044, 1043,
  1044, 1045,
  1047, 1046,
  1049, 1048,
  1049, 1050,
  1052, 1051,
  1052, 1053,
  1055, 1054,
  1057, 1056,
  1057, 1058,
  1060, 1059,
  1062, 1061,
  1062, 1063,
  1065, 1064,
  1065, 1066,
  1068, 1067,
  1070, 1069,
  1070, 1071,
  1073, 1072,
  1073, 1074,
  1076, 1075,
  1078, 1077,
  1078, 1079,
  1081, 1080,
  1083, 1082,
  1083, 1084,
  1086, 1085,
  1086, 1087,
  1089, 1088,
  1091, 1090,
  1091, 1092,
  1094, 1093,
  1096, 1095,
  1096, 1097,
  1099, 1098,
  1099, 1100,
  1102, 1101,
  1104, 1103,
  1104, 1105,
  1107, 1106,
  1107, 1108,
  1110, 1109,
  1112, 1111,
  1112, 1113,
  1115, 1114,
  1117, 1116,
  1117, 1118,
  1120, 1119,
  1120, 1121,
  1123, 1122,
  1125, 1124,
  1125, 1126,
  1128, 1127,
  1130, 1129,
  1130, 1131,
  1133, 1132,
  1133, 1134,
  1136, 1135,
  1138, 1137,
  1138, 1139,
  1141, 1140,
  1141, 1142,
  1144, 1143,
  1146, 1145,
  1146, 1147,
  1149, 1148,
  1151, 1150,
  1151, 1152,
  1154, 1153,
  1154, 1155,
  1157, 1156,
  1159, 1158,
  1159, 1160,
  1162, 1161,
  1162, 1163,
  1165, 1164,
  1167, 1166,
  1167, 1168,
  1170, 1169,
  1172, 1171,
  1172, 1173,
  1175, 1174,
  1175, 1176,
  1178, 1177,
  1180, 1179,
  1180, 1181,
  1183, 1182,
  1185, 1184,
  1185, 1186,
  1188, 1187,
  1188, 1189,
  1191, 1190,
  1193, 1192,
  1193, 1194,
  1196, 1195,
  1196, 1197,
  1199, 1198,
  1201, 1200,
  1201, 1202,
  1204, 1203,
  1206, 1205,
  1206, 1207,
  1209, 1208,
  1209, 1210,
  1212, 1211,
  1214, 1213,
  1214, 1215,
  1217, 1216,
  1217, 1218,
  1220, 1219,
  1222, 1221,
  1222, 1223,
  1225, 1224,
  1227, 1226,
  1227, 1228,
  1230, 1229,
  1230, 1231,
  1233, 1232,
  1235, 1234,
  1235, 1236,
  1238, 1237,
  1240, 1239,
  1240, 1241,
  1243, 1242,
  1243, 1244,
  1246, 1245,
  1248, 1247,
  1248, 1249,
  1251, 1250,
  1251, 1252,
  1254, 1253,
  1256, 1255,
  1256, 1257,
  1259, 1258,
  1261, 1260,
  1261, 1262,
  1264, 1263,
  1264, 1265,
  1267, 1266,
  1269, 1268,
  1269, 1270,
  1272, 1271,
  1274, 1273,
  1274, 1275,
  1277, 1276,
  1277, 1278,
  1280, 1279,
  1282, 1281,
  1282, 1283,
  1285, 1284,
  1285, 1286,
  1288, 1287,
  1290, 1289,
  1290, 1291,
  1293, 1292,
  1295, 1294,
  1295, 1296,
  1298, 1297,
  1298, 1299,
  1301, 1300,
  1303, 1302,
  1303, 1304,
  1306, 1305,
  1306, 1307,
  1309, 1308,
  1311, 1310,
  1311, 1312,
  1314, 1313,
  1316, 1315,
  1316, 1317,
  1319, 1318,
  1319, 1320,
  1322, 1321,
  1324, 1323,
  1324, 1325,
  1327, 1326,
  1329, 1328,
  1329, 1330,
  1332, 1331,
  1332, 1333,
  1335, 1334,
  1337, 1336,
  1337, 1338,
  1340, 1339,
  1340, 1341,
  1343, 1342,
  1345, 1344,
  1345, 1346,
  1348, 1347,
  1350, 1349,
  1350, 1351,
  1353, 1352,
  1353, 1354,
  1356, 1355,
  1358, 1357,
  1358, 1359,
  1361, 1360,
  1363, 1362,
  1363, 1364,
  1366, 1365,
  1366, 1367,
  1369, 1368,
  1371, 1370,
  1371, 1372,
  1374, 1373,
  1374, 1375,
  1377, 1376,
  1379, 1378,
  1379, 1380,
  1382, 1381,
  1384, 1383,
  1384, 1385,
  1387, 1386,
  1387, 1388,
  1390, 1389,
  1392, 1391,
  1392, 1393,
  1395, 1394,
  1395, 1396,
  1398, 1397,
  1400, 1399,
  1400, 1401,
  1403, 1402,
  1405, 1404,
  1405, 1406,
  1408, 1407,
  1408, 1409,
  1411, 1410,
  1413, 1412,
  1413, 1414,
  1416, 1415,
  1418, 1417,
  1418, 1419,
  1421, 1420,
  1421, 1422,
  1424, 1423,
  1426, 1425,
  1426, 1427,
  1429, 1428,
  1429, 1430,
  1432, 1431,
  1434, 1433,
  1434, 1435,
  1437, 1436,
  1439, 1438,
  1439, 1440,
  1442, 1441,
  1442, 1443,
  1445, 1444,
  1447, 1446,
  1447, 1448,
  1450, 1449,
  1450, 1451,
  1453, 1452,
  1455, 1454,
  1455, 1456,
  1458, 1457,
  1460, 1459,
  1460, 1461,
  1463, 1462,
  1463, 1464,
  1466, 1465,
  1468, 1467,
  1468, 1469,
  1471, 1470,
  1473, 1472,
  1473, 1474,
  1476, 1475,
  1476, 1477,
  1479, 1478,
  1481, 1480,
  1481, 1482,
  1484, 1483,
  1484, 1485,
  1487, 1486,
  1489, 1488,
  1489, 1490,
  1492, 1491,
  1494, 1493,
  1494, 1495,
  1497, 1496,
  1497, 1498,
  1500, 1499,
  1502, 1501,
  1502, 1503,
  1505, 1504,
  1507, 1506,
  1507, 1508,
  1510, 1509,
  1510, 1511,
  1513, 1512,
  1515, 1514,
  1515, 1516,
  1518, 1517,
  1518, 1519,
  1521, 1520,
  1523, 1522,
  1523, 1524,
  1526, 1525,
  1528, 1527,
  1528, 1529,
  1531, 1530,
  1531, 1532,
  1534, 1533,
  1536, 1535,
  1536, 1537,
  1539, 1538,
  1539, 1540,
  1542, 1541,
  1544, 1543,
  1544, 1545,
  1547, 1546,
  1549, 1548,
  1549, 1550,
  1552, 1551,
  1552, 1553,
  1555, 1554,
  1557, 1556,
  1557, 1558,
  1560, 1559,
  1562, 1561,
  1562, 1563,
  1565, 1564,
  1565, 1566,
  1568, 1567,
  1570, 1569,
  1570, 1571,
  1573, 1572,
  1573, 1574,
  1576, 1575,
  1578, 1577,
  1578, 1579,
  1581, 1580,
  1583, 1582,
  1583, 1584,
  1586, 1585,
  1586, 1587,
  1589, 1588,
  1591, 1590,
  1591, 1592,
  1594, 1593,
  1594, 1595,
  1597, 1596,
  2, 1,
  2, 3,
  5, 4,
  7, 6,
  7, 8,
  10, 9,
  10, 11,
  13, 12,
  15, 14,
  15, 16,
  18, 17,
  20, 19,
  20, 21,
  23, 22,
  23, 24,
  26, 25,
  28, 27,
  28, 29,
  31, 30,
  31, 32,
  34, 33,
  36, 35,
  36, 37,
  39, 38,
  41, 40,
  41, 42,
  44, 43,
  44, 45,
  47, 46,
  49, 48,
  49, 50,
  52, 51,
  54, 53,
  54, 55,
  57, 56,
  57, 58,
  60, 59,
  62, 61,
  62, 63,
  65, 64,
  65, 66,
  68, 67,
  70, 69,
  70, 71,
  73, 72,
  75, 74,
  75, 76,
  78, 77,
  78, 79,
  81, 80,
  83, 82,
  83, 84,
  86, 85,
  86, 87,
  89, 88,
  91, 90,
  91, 92,
  94, 93,
  96, 95,
  96, 97,
  99, 98,
  99, 100,
  102, 101,
  104, 103,
  104, 105,
  107, 106,
  109, 108,
  109, 110,
  112, 111,
  112, 113,
  115, 114,
  117, 116,
  117, 118,
  120, 119,
  120, 121,
  123, 122,
  125, 124,
  125, 126,
  128, 127,
  130, 129,
  130, 131,
  133, 132,
  133, 134,
  136, 135,
  138, 137,
  138, 139,
  141, 140,
  143, 142,
  143, 144,
  146, 145,
  146, 147,
  149, 148,
  151, 150,
  151, 152,
  154, 153,
  154, 155,
  157, 156,
  159, 158,
  159, 160,
  162, 161,
  164, 163,
  164, 165,
  167, 166,
  167, 168,
  170, 169,
  172, 171,
  172, 173,
  175, 174,
  175, 176,
  178, 177,
  180, 179,
  180, 181,
  183, 182,
  185, 184,
  185, 186,
  188, 187,
  188, 189,
  191, 190,
  193, 192,
  193, 194,
  196, 195,
  198, 197,
  198, 199,
  201, 200,
  201, 202,
  204, 203,
  206, 205,
  206, 207,
  209, 208,
  209, 210,
  212, 211,
  214, 213,
  214, 215,
  217, 216,
  219, 218,
  219, 220,
  222, 221,
  222, 223,
  225, 224,
  227, 226,
  227, 228,
  230, 229,
  230, 231,
  233, 232,
  235, 234,
  235, 236,
  238, 237,
  240, 239,
  240, 241,
  243, 242,
  243, 244,
  246, 245,
  248, 247,
  248, 249,
  251, 250,
  253, 252,
  253, 254,
  256, 255,
  256, 257,
  259, 258,
  261, 260,
  261, 262,
  264, 263,
  264, 265,
  267, 266,
  269, 268,
  269, 270,
  272, 271,
  274, 273,
  274, 275,
  277, 276,
  277, 278,
  280, 279,
  282, 281,
  282, 283,
  285, 284,
  287, 286,
  287, 288,
  290, 289,
  290, 291,
  293, 292,
  295, 294,
  295, 296,
  298, 297,
  298, 299,
  301, 300,
  303, 302,
  303, 304,
  306, 305,
  308, 307,
  308, 309,
  311, 310,
  311, 312,
  314, 313,
  316, 315,
  316, 317,
  319, 318,
  319, 320,
  322, 321,
  324, 323,
  324, 325,
  327, 326,
  329, 328,
  329, 330,
  332, 331,
  332, 333,
  335, 334,
  337, 336,
  337, 338,
  340, 339,
  342, 341,
  342, 343,
  345, 344,
  345, 346,
  348, 347,
  350, 349,
  350, 351,
  353, 352,
  353, 354,
  356, 355,
  358, 357,
  358, 359,
  361, 360,
  363, 362,
  363, 364,
  366, 365,
  366, 367,
  369, 368,
  371, 370,
  371, 372,
  374, 373,
  376, 375,
  376, 377,
  379, 378,
  379, 380,
  382, 381,
  384, 383,
  384, 385,
  387, 386,
  387, 388,
  390, 389,
  392, 391,
  392, 393,
  395, 394,
  397, 396,
  397, 398,
  400, 399,
  400, 401,
  403, 402,
  405, 404,
  405, 406,
  408, 407,
  408, 409,
  411, 410,
  413, 412,
  413, 414,
  416, 415,
  418, 417,
  418, 419,
  421, 420,
  421, 422,
  424, 423,
  426, 425,
  426, 427,
  429, 428,
  431, 430,
  431, 432,
  434, 433,
  434, 435,
  437, 436,
  439, 438,
  439, 440,
  442, 441,
  442, 443,
  445, 444,
  447, 446,
  447, 448,
  450, 449,
  452, 451,
  452, 453,
  455, 454,
  455, 456,
  458, 457,
  460, 459,
  460, 461,
  463, 462,
  463, 464,
  466, 465,
  468, 467,
  468, 469,
  471, 470,
  473, 472,
  473, 474,
  476, 475,
  476, 477,
  479, 478,
  481, 480,
  481, 482,
  484, 483,
  486, 485,
  486, 487,
  489, 488,
  489, 490,
  492, 491,
  494, 493,
  494, 495,
  497, 496,
  497, 498,
  500, 499,
  502, 501,
  502, 503,
  505, 504,
  507, 506,
  507, 508,
  510, 509,
  510, 511,
  513, 512,
  515, 514,
  515, 516,
  518, 517,
  520, 519,
  520, 521,
  523, 522,
  523, 524,
  526, 525,
  528, 527,
  528, 529,
  531, 530,
  531, 532,
  534, 533,
  536, 535,
  536, 537,
  539, 538,
  541, 540,
  541, 542,
  544, 543,
  544, 545,
  547, 546,
  549, 548,
  549, 550,
  552, 551,
  552, 553,
  555, 554,
  557, 556,
  557, 558,
  560, 559,
  562, 561,
  562, 563,
  565, 564,
  565, 566,
  568, 567,
  570, 569,
  570, 571,
  573, 572,
  575, 574,
  575, 576,
  578, 577,
  578, 579,
  581, 580,
  583, 582,
  583, 584,
  586, 585,
  586, 587,
  589, 588,
  591, 590,
  591, 592,
  594, 593,
  596, 595,
  596, 597,
  599, 598,
  599, 600,
  602, 601,
  604, 603,
  604, 605,
  607, 606,
  607, 608,
  610, 609,
  612, 611,
  612, 613,
  615, 614,
  617, 616,
  617, 618,
  620, 619,
  620, 621,
  623, 622,
  625, 624,
  625, 626,
  628, 627,
  630, 629,
  630, 631,
  633, 632,
  633, 634,
  636, 635,
  638, 637,
  638, 639,
  641, 640,
  641, 642,
  644, 643,
  646, 645,
  646, 647,
  649, 648,
  651, 650,
  651, 652,
  654, 653,
  654, 655,
  657, 656,
  659, 658,
  659, 660,
  662, 661,
  664, 663,
  664, 665,
  667, 666,
  667, 668,
  670, 669,
  672, 671,
  672, 673,
  675, 674,
  675, 676,
  678, 677,
  680, 679,
  680, 681,
  683, 682,
  685, 684,
  685, 686,
  688, 687,
  688, 689,
  691, 690,
  693, 692,
  693, 694,
  696, 695,
  696, 697,
  699, 698,
  701, 700,
  701, 702,
  704, 703,
  706, 705,
  706, 707,
  709, 708,
  709, 710,
  712, 711,
  714, 713,
  714, 715,
  717, 716,
  719, 718,
  719, 720,
  722, 721,
  722, 723,
  725, 724,
  727, 726,
  727, 728,
  730, 729,
  730, 731,
  733, 732,
  735, 734,
  735, 736,
  738, 737,
  740, 739,
  740, 741,
  743, 742,
  743, 744,
  746, 745,
  748, 747,
  748, 749,
  751, 750,
  753, 752,
  753, 754,
  756, 755,
  756, 757,
  759, 758,
  761, 760,
  761, 762,
  764, 763,
  764, 765,
  767, 766,
  769, 768,
  769, 770,
  772, 771,
  774, 773,
  774, 775,
  777, 776,
  777, 778,
  780, 779,
  782, 781,
  782, 783,
  785, 784,
  785, 786,
  788, 787,
  790, 789,
  790, 791,
  793, 792,
  795, 794,
  795, 796,
  798, 797,
  798, 799,
  801, 800,
  803, 802,
  803, 804,
  806, 805,
  808, 807,
  808, 809,
  811, 810,
  811, 812,
  814, 813,
  816, 815,
  816, 817,
  819, 818,
  819, 820,
  822, 821,
  824, 823,
  824, 825,
  827, 826,
  829, 828,
  829, 830,
  832, 831,
  832, 833,
  835, 834,
  837, 836,
  837, 838,
  840, 839,
  840, 841,
  843, 842,
  845, 844,
  845, 846,
  848, 847,
  850, 849,
  850, 851,
  853, 852,
  853, 854,
  856, 855,
  858, 857,
  858, 859,
  861, 860,
  863, 862,
  863, 864,
  866, 865,
  866, 867,
  869, 868,
  871, 870,
  871, 872,
  874, 873,
  874, 875,
  877, 876,
  879, 878,
  879, 880,
  882, 881,
  884, 883,
  884, 885,
  887, 886,
  887, 888,
  890, 889,
  892, 891,
  892, 893,
  895, 894,
  897, 896,
  897, 898,
  900, 899,
  900, 901,
  903, 902,
  905, 904,
  905, 906,
  908, 907,
  908, 909,
  911, 910,
  913, 912,
  913, 914,
  916, 915,
  918, 917,
  918, 919,
  921, 920,
  921, 922,
  924, 923,
  926, 925,
  926, 927,
  929, 928,
  929, 930,
  932, 931,
  934, 933,
  934, 935,
  937, 936,
  939, 938,
  939, 940,
  942, 941,
  942, 943,
  945, 944,
  947, 946,
  947, 948,
  950, 949,
  952, 951,
  952, 953,
  955, 954,
  955, 956,
  958, 957,
  960, 959,
  960, 961,
  963, 962,
  963, 964,
  966, 965,
  968, 967,
  968, 969,
  971, 970,
  973, 972,
  973, 974,
  976, 975,
  976, 977,
  979, 978,
  981, 980,
  981, 982,
  984, 983,
  986, 985,
  986, 987
]);
d_nfa = array2d(1..1597, 1..2, [
  {}, {},
  {}, {},
  {}, {},
  {}, {},
  {}, {},
  {}, {},
  {}, {},
  {}, {},
  {}, {},
  {}, {},
  {}, {},
  {}, {},
  {}, {},
  {}, {},
  {}, {},
  {}, {},
  {}, {},
  {}, {},
  {}, {},
  {}, {},
  {}, {},
  {}, {},
  {}, {},
  {}, {},
  {}, {},
  {}, {},
  {}, {},
  {}, {},
  {}, {},
  {}, {},
  {}, {},
  {}, {},
  {}, {},
  {}, {},
  {}, {},
  {}, {},
  {}, {},
  {}, {},
  {}, {},
  {}, {},
  {}, {},
  {}, {},
  {}, {},
  {}, {},
  {}, {},
  {}, {},
  {}, {},
  {}, {},
  {}, {},
  {}, {},
  {}, {},
  {}, {},
  {}, {},
  {}, {},
  {}, {},
  {}, {},
  {}, {},
  {}, {},
  {}, {},
  {}, {},
  {}, {},
  {}, {},
  {}, {},
  {}, {},
  {}, {},
  {}, {},
  {}, {},
  {}, {},
  {}, {},
  {}, {},
  {}, {},
  {}, {},
  {}, {},
  {}, {},
  {}, {},
  {}, {},
  {}, {},
  {}, {},
  {}, {},
  {}, {},
  {}, {},
  {}, {},
  {}, {},
  {}, {},
  {}, {},
  {}, {},
  {}, {},
  {}, {},
  {}, {},
  {}, {},
  {}, {},
  {}, {},
  {}, {},
  {}, {},
  {}, {},
  {}, {},
  {}, {},
  {}, {},
  {}, {},
  {}, {},
  {}, {},
  {}, {},
  {}, {},
  {}, {},
  {}, {},
  {}, {},
  {}, {},
  {}, {},
  {}, {},
  {}, {},
  {}, {},
  {}, {},
  {}, {},
  {}, {},
  {}, {},
  {}, {},
  {}, {},
  {}, {},
  {}, {},
  {}, {},
  {}, {},
  {}, {},
  {}, {},
  {}, {},
  {}, {},
  {}, {},
  {}, {},
  {}, {},
  {}, {},
  {}, {},
  {}, {},
  {}, {},
  {}, {},
  {}, {},
  {}, {},
  {}, {},
  {}, {},
  {}, {},
  {}, {},
  {}, {},
  {}, {},
  {}, {},
  {}, {},
  {}, {},
  {}, {},
  {}, {},
  {}, {},
  {}, {},
  {}, {},
  {}, {},
  {}, {},
  {}, {},
  {}, {},
  {}, {},
  {}, {},
  {}, {},
  {}, {},
  {}, {},
  {}, {},
  {}, {},
  {}, {},
  {}, {},
  {}, {},
  {}, {},
  {}, {},
  {}, {},
  {}, {},
  {}, {},
  {}, {},
  {}, {},
  {}, {},
  {}, {},
  {}, {},
  {}, {},
  {}, {},
  {}, {},
  {}, {},
  {}, {},
  {}, {},
  {}, {},
  {}, {},
  {}, {},
  {}, {},
  {}, {},
  {}, {},
  {}, {},
  {}, {},
  {}, {},
  {}, {},
  {}, {},
  {}, {},
  {}, {},
  {}, {},
  {}, {},
  {}, {},
  {}, {},
  {}, {},
  {}, {},
  {}, {},
  {}, {},
  {}, {},
  {}, {},
  {}, {},
  {}, {},
  {}, {},
  {}, {},
  {}, {},
  {}, {},
  {}, {},
  {}, {},
  {}, {},
  {}, {},
  {}, {},
  {}, {},
  {}, {},
  {}, {},
  {}, {},
  {}, {},
  {}, {},
  {}, {},
  {}, {},
  {}, {},
  {}, {},
  {}, {},
  {}, {},
  {}, {},
  {}, {},
  {}, {},
  {}, {},
  {}, {},
  {}, {},
  {}, {},
  {}, {},
  {}, {},
  {}, {},
  {}, {},
  {}, {},
  {}, {},
  {}, {},
  {}, {},
  {}, {},
  {}, {},
  {}, {},
  {}, {},
  {}, {},
  {}, {},
  {}, {},
  {}, {},
  {}, {},
  {}, {},
  {}, {},
  {}, {},
  {}, {},
  {}, {},
  {}, {},
  {}, {},
  {}, {},
  {}, {},
  {}, {},
  {}, {},
  {}, {},
  {}, {},
  {}, {},
  {}, {},
  {}, {},
  {}, {},
  {}, {},
  {}, {},
  {}, {},
  {}, {},
  {}, {},
  {}, {},
  {}, {},
  {}, {},
  {}, {},
  {}, {},
  {}, {},
  {}, {},
  {}, {},
  {}, {},
  {}, {},
  {}, {},
  {}, {},
  {}, {},
  {}, {},
  {}, {},
  {}, {},
  {}, {},
  {}, {},
  {}, {},
  {}, {},
  {}, {},
  {}, {},
  {}, {},
  {}, {},
  {}, {},
  {}, {},
  {}, {},
  {}, {},
  {}, {},
  {}, {},
  {}, {},
  {}, {},
  {}, {},
  {}, {},
  {}, {},
  {}, {},
  {}, {},
  {}, {},
  {}, {},
  {}, {},
  {}, {},
  {}, {},
  {}, {},
  {}, {},
  {}, {},
  {}, {},
  {}, {},
  {}, {},
  {}, {},
  {}, {},
  {}, {},
  {}, {},
  {}, {},
  {}, {},
  {}, {},
  {}, {},
  {}, {},
  {}, {},
  {}, {},
  {}, {},
  {}, {},
  {}, {},
  {}, {},
  {}, {},
  {}, {},
  {}, {},
  {}, {},
  {}, {},
  {}, {},
  {}, {},
  {}, {},
  {}, {},
  {}, {},
  {}, {},
  {}, {},
  {}, {},
  {}, {},
  {}, {},
  {}, {},
  {}, {},
  {}, {},
  {}, {},
  {}, {},
  {}, {},
  {}, {},
  {}, {},
  {}, {},
  {}, {},
  {}, {},
  {}, {},
  {}, {},
  {}, {},
  {}, {},
  {}, {},
  {}, {},
  {}, {},
  {}, {},
  {}, {},
  {}, {},
  {}, {},
  {}, {},
  {}, {},
  {}, {},
  {}, {},
  {}, {},
  {}, {},
  {}, {},
  {}, {},
  {}, {},
  {}, {},
  {}, {},
  {}, {},
  {}, {},
  {}, {},
  {}, {},
  {}, {},
  {}, {},
  {}, {},
  {}, {},
  {}, {},
  {}, {},
  {}, {},
  {}, {},
  {}, {},
  {}, {},
  {}, {},
  {}, {},
  {}, {},
  {}, {},
  {}, {},
  {}, {},
  {}, {},
  {}, {},
  {}, {},
  {}, {},
  {}, {},
  {}, {},
  {}, {},
  {}, {},
  {}, {},
  {}, {},
  {}, {},
  {}, {},
  {}, {},
  {}, {},
  {}, {},
  {}, {},
  {}, {},
  {}, {},
  {}, {},
  {}, {},
  {}, {},
  {}, {},
  {}, {},
  {}, {},
  {}, {},
  {}, {},
  {}, {},
  {}, {},
  {}, {},
  {}, {},
  {}, {},
  {}, {},
  {}, {},
  {}, {},
  {}, {},
  {}, {},
  {}, {},
  {}, {},
  {}, {},
  {}, {},
  {}, {},
  {}, {},
  {}, {},
  {}, {},
  {}, {},
  {}, {},
  {}, {},
  {}, {},
  {}, {},
  {}, {},
  {}, {},
  {}, {},
  {}, {},
  {}, {},
  {}, {},
  {}, {},
  {}, {},
  {}, {},
  {}, {},
  {}, {},
  {}, {},
  {}, {},
  {}, {},
  {}, {},
  {}, {},
  {}, {},
  {}, {},
  {}, {},
  {}, {},
  {}, {},
  {}, {},
  {}, {},
  {}, {},
  {}, {},
  {}, {},
  {}, {},
  {}, {},
  {}, {},
  {}, {},
  {}, {},
  {}, {},
  {}, {},
  {}, {},
  {}, {},
  {}, {},
  {}, {},
  {}, {},
  {}, {},
  {}, {},
  {}, {},
  {}, {},
  {}, {},
  {}, {},
  {}, {},
  {}, {},
  {}, {},
  {}, {},
  {}, {},
  {}, {},
  {}, {},
  {}, {},
  {}, {},
  {}, {},
  {}, {},
  {}, {},
  {}, {},
  {}, {},
  {}, {},
  {}, {},
  {}, {},
  {}, {},
  {}, {},
  {}, {},
  {}, {},
  {}, {},
  {}, {},
  {}, {},
  {}, {},
  {}, {},
  {}, {},
  {}, {},
  {}, {},
  {}, {},
  {}, {},
  {}, {},
  {}, {},
  {}, {},
  {}, {},
  {}, {},
  {}, {},
  {}, {},
  {}, {},
  {}, {},
  {}, {},
  {}, {},
  {}, {},
  {}, {},
  {}, {},
  {}, {},
  {}, {},
  {}, {},
  {}, {},
  {}, {},
  {}, {},
  {}, {},
  {}, {},
  {}, {},
  {}, {},
  {}, {},
  {}, {},
  {}, {},
  {}, {},
  {}, {},
  {}, {},
  {}, {},
  {}, {},
  {}, {},
  {}, {},
  {}, {},
  {}, {},
  {}, {},
  {}, {},
  {}, {},
  {}, {},
  {}, {},
  {}, {},
  {}, {},
  {}, {},
  {}, {},
  {}, {},
  {}, {},
  {}, {},
  {}, {},
  {}, {},
  {}, {},
  {}, {},
  {}, {},
  {}, {},
  {}, {},
  {}, {},
  {}, {},
  {}, {},
  {}, {},
  {}, {},
  {}, {},
  {}, {},
  {}, {},
  {}, {},
  {}, {},
  {}, {},
  {}, {},
  {}, {},
  {}, {},
  {}, {},
  {}, {},
  {}, {},
  {}, {},
  {}, {},
  {}, {},
  {}, {},
  {}, {},
  {}, {},
  {}, {},
  {}, {},
  {}, {},
  {}, {},
  {}, {},
  {}, {},
  {}, {},
  {}, {},
  {}, {},
  {}, {},
  {}, {},
  {}, {},
  {}, {},
  {}, {},
  {}, {},
  {}, {},
  {}, {},
  {}, {},
  {}, {},
  {}, {},
  {}, {},
  {}, {},
  {}, {},
  {}, {},
  {}, {},
  {}, {},
  {}, {},
  {}, {},
  {}, {},
  {}, {},
  {}, {},
  {}, {},
  {}, {},
  {}, {},
  {}, {},
  {}, {},
  {}, {},
  {}, {},
  {}, {},
  {}, {},
  {}, {},
  {}, {},
  {}, {},
  {}, {},
  {}, {},
  {}, {},
  {}, {},
  {}, {},
  {}, {},
  {}, {},
  {}, {},
  {}, {},
  {}, {},
  {}, {},
  {}, {},
  {}, {},
  {}, {},
  {}, {},
  {}, {},
  {}, {},
  {}, {},
  {}, {},
  {}, {},
  {}, {},
  {}, {},
  {}, {},
  {}, {},
  {}, {},
  {}, {},
  {}, {},
  {}, {},
  {}, {},
  {}, {},
  {}, {},
  {}, {},
  {}, {},
  {}, {},
  {}, {},
  {}, {},
  {}, {},
  {}, {},
  {}, {},
  {}, {},
  {}, {},
  {}, {},
  {}, {},
  {}, {},
  {}, {},
  {}, {},
  {}, {},
  {}, {},
  {}, {},
  {}, {},
  {}, {},
  {}, {},
  {}, {},
  {}, {},
  {}, {},
  {}, {},
  {}, {},
  {}, {},
  {}, {},
  {}, {},
  {}, {},
  {}, {},
  {}, {},
  {}, {},
  {}, {},
  {}, {},
  {}, {},
  {}, {},
  {}, {},
  {}, {},
  {}, {},
  {}, {},
  {}, {},
  {}, {},
  {}, {},
  {}, {},
  {}, {},
  {}, {},
  {}, {},
  {}, {},
  {}, {},
  {}, {},
  {}, {},
  {}, {},
  {}, {},
  {}, {},
  {}, {},
  {}, {},
  {}, {},
  {}, {},
  {}, {},
  {}, {},
  {}, {},
  {}, {},
  {}, {},
  {}, {},
  {}, {},
  {}, {},
  {}, {},
  {}, {},
  {}, {},
  {}, {},
  {}, {},
  {}, {},
  {}, {},
  {}, {},
  {}, {},
  {}, {},
  {}, {},
  {}, {},
  {}, {},
  {}, {},
  {}, {},
  {}, {},
  {}, {},
  {}, {},
  {}, {},
  {}, {},
  {}, {},
  {}, {},
  {}, {},
  {}, {},
  {}, {},
  {}, {},
  {}, {},
  {}, {},
  {}, {},
  {}, {},
  {}, {},
  {}, {},
  {}, {},
  {}, {},
  {}, {},
  {}, {},
  {}, {},
  {}, {},
  {}, {},
  {}, {},
  {}, {},
  {}, {},
  {}, {},
  {}, {},
  {}, {},
  {}, {},
  {}, {},
  {}, {},
  {}, {},
  {}, {},
  {}, {},
  {}, {},
  {}, {},
  {}, {},
  {}, {},
  {}, {},
  {}, {},
  {}, {},
  {}, {},
  {}, {},
  {}, {},
  {}, {},
  {}, {},
  {}, {},
  {}, {},
  {}, {},
  {}, {},
  {}, {},
  {}, {},
  {}, {},
  {}, {},
  {}, {},
  {}, {},
  {}, {},
  {}, {},
  {}, {},
  {}, {},
  {}, {},
  {}, {},
  {}, {},
  {}, {},
  {}, {},
  {}, {},
  {}, {},
  {}, {},
  {}, {},
  {}, {},
  {}, {},
  {}, {},
  {}, {},
  {}, {},
  {}, {},
  {}, {},
  {}, {},
  {}, {},
  {}, {},
  {}, {},
  {}, {},
  {}, {},
  {}, {},
  {}, {},
  {}, {},
  {}, {},
  {}, {},
  {}, {},
  {}, {},
  {}, {},
  {}, {},
  {}, {},
  {}, {},
  {}, {},
  {}, {},
  {}, {},
  {}, {},
  {}, {},
  {}, {},
  {}, {},
  {}, {},
  {}, {},
  {}, {},
  {}, {},
  {}, {},
  {}, {},
  {}, {},
  {}, {},
  {}, {},
  {}, {},
  {}, {},
  {}, {},
  {}, {},
  {}, {},
  {}, {},
  {}, {},
  {}, {},
  {}, {},
  {}, {},
  {}, {},
  {}, {},
  {}, {},
  {}, {},
  {}, {},
  {}, {},
  {}, {},
  {}, {},
  {}, {},
  {}, {},
  {}, {},
  {}, {},
  {}, {},
  {}, {},
  {}, {},
  {}, {},
  {}, {},
  {}, {},
  {}, {},
  {}, {},
  {}, {},
  {}, {},
  {}, {},
  {}, {},
  {}, {},
  {}, {},
  {}, {},
  {}, {},
  {}, {},
  {}, {},
  {}, {},
  {}, {},
  {}, {},
  {}, {},
  {}, {},
  {}, {},
  {}, {},
  {}, {},
  {}, {},
  {}, {},
  {}, {},
  {}, {},
  {}, {},
  {}, {},
  {}, {},
  {}, {},
  {}, {},
  {}, {},
  {}, {},
  {}, {},
  {}, {},
  {}, {},
  {}, {},
  {}, {},
  {}, {},
  {}, {},
  {}, {},
  {}, {},
  {}, {},
  {}, {},
  {}, {},
  {}, {},
  {}, {},
  {}, {},
  {}, {},
  {}, {},
  {}, {},
  {}, {},
  {}, {},
  {}, {},
  {}, {},
  {}, {},
  {}, {},
  {}, {},
  {}, {},
  {}, {},
  {}, {},
  {}, {},
  {}, {},
  {}, {},
  {}, {},
  {}, {},
  {}, {},
  {}, {},
  {}, {},
  {}, {},
  {}, {},
  {}, {},
  {}, {},
  {}, {},
  {}, {},
  {}, {},
  {}, {},
  {}, {},
  {}, {},
  {}, {},
  {}, {},
  {}, {},
  {}, {},
  {}, {},
  {}, {},
  {}, {},
  {}, {},
  {}, {},
  {}, {},
  {}, {},
  {}, {},
  {}, {},
  {}, {},
  {}, {},
  {}, {},
  {}, {},
  {}, {},
  {}, {},
  {}, {},
  {}, {},
  {}, {},
  {}, {},
  {}, {},
  {}, {},
  {}, {},
  {}, {},
  {}, {},
  {}, {},
  {}, {},
  {}, {},
  {}, {},
  {}, {},
  {}, {},
  {}, {},
  {}, {},
  {}, {},
  {}, {},
  {}, {},
  {}, {},
  {}, {},
  {}, {},
  {}, {},
  {}, {},
  {}, {},
  {}, {},
  {}, {},
  {}, {},
  {}, {},
  {}, {},
  {}, {},
  {}, {},
  {}, {},
  {}, {},
  {}, {},
  {}, {},
  {}, {},
  {}, {},
  {}, {},
  {}, {},
  {}, {},
  {}, {},
  {}, {},
  {}, {},
  {}, {},
  {}, {},
  {}, {},
  {}, {},
  {}, {},
  {}, {},
  {}, {},
  {}, {},
  {}, {},
  {}, {},
  {}, {},
  {}, {},
  {}, {},
  {}, {},
  {}, {},
  {}, {},
  {}, {},
  {}, {},
  {}, {},
  {}, {},
  {}, {},
  {}, {},
  {}, {},
  {}, {},
  {}, {},
  {}, {},
  {}, {},
  {}, {},
  {}, {},
  {}, {},
  {}, {},
  {}, {},
  {}, {},
  {}, {},
  {}, {},
  {}, {},
  {}, {},
  {}, {},
  {}, {},
  {}, {},
  {}, {},
  {}, {},
  {}, {},
  {}, {},
  {}, {},
  {}, {},
  {}, {},
  {}, {},
  {}, {},
  {}, {},
  {}, {},
  {}, {},
  {}, {},
  {}, {},
  {}, {},
  {}, {},
  {}, {},
  {}, {},
  {}, {},
  {}, {},
  {}, {},
  {}, {},
  {}, {},
  {}, {},
  {}, {},
  {}, {},
  {}, {},
  {}, {},
  {}, {},
  {}, {},
  {}, {},
  {}, {},
  {}, {},
  {}, {},
  {}, {},
  {}, {},
  {}, {},
  {}, {},
  {}, {},
  {}, {},
  {}, {},
  {}, {},
  {}, {},
  {}, {},
  {}, {},
  {}, {},
  {}, {},
  {}, {},
  {}, {},
  {}, {},
  {}, {},
  {}, {},
  {}, {},
  {}, {},
  {}, {},
  {}, {},
  {}, {},
  {}, {},
  {}, {},
  {}, {},
  {}, {},
  {}, {},
  {}, {},
  {}, {},
  {}, {},
  {}, {},
  {}, {},
  {}, {},
  {}, {},
  {}, {},
  {}, {},
  {}, {},
  {}, {},
  {}, {},
  {}, {},
  {}, {},
  {}, {},
  {}, {},
  {}, {},
  {}, {},
  {}, {},
  {}, {},
  {}, {},
  {}, {},
  {}, {},
  {}, {},
  {}, {},
  {}, {},
  {}, {},
  {}, {},
  {}, {},
  {}, {},
  {}, {},
  {}, {},
  {}, {},
  {}, {},
  {}, {},
  {}, {},
  {}, {},
  {}, {},
  {}, {},
  {}, {},
  {}, {},
  {}, {},
  {}, {},
  {}, {},
  {}, {},
  {}, {},
  {}, {},
  {}, {},
  {}, {},
  {}, {},
  {}, {},
  {}, {},
  {}, {},
  {}, {},
  {}, {},
  {}, {},
  {}, {},
  {}, {},
  {}, {},
  {}, {},
  {}, {},
  {}, {},
  {}, {},
  {}, {},
  {}, {},
  {}, {},
  {}, {},
  {}, {},
  {}, {},
  {}, {},
  {}, {},
  {}, {},
  {}, {},
  {}, {},
  {}, {},
  {}, {},
  {}, {},
  {}, {},
  {}, {},
  {}, {},
  {}, {},
  {}, {},
  {}, {},
  {}, {},
  {}, {},
  {}, {},
  {}, {},
  {}, {},
  {}, {},
  {}, {},
  {}, {},
  {}, {},
  {}, {},
  {}, {},
  {}, {},
  {}, {},
  {}, {},
  {}, {},
  {}, {},
  {}, {},
  {}, {},
  {}, {},
  {}, {},
  {}, {},
  {}, {},
  {}, {},
  {}, {},
  {}, {},
  {}, {},
  {}, {},
  {}, {},
  {}, {},
  {}, {},
  {}, {},
  {}, {},
  {}, {},
  {}, {},
  {}, {},
  {}, {},
  {}, {},
  {}, {},
  {}, {},
  {}, {},
  {}, {},
  {}, {},
  {}, {},
  {}, {},
  {}, {},
  {}, {},
  {}, {},
  {}, {},
  {}, {},
  {}, {},
  {}, {},
  {}, {},
  {}, {},
  {}, {},
  {}, {},
  {}, {},
  {}, {},
  {}, {},
  {}, {},
  {}, {},
  {}, {},
  {}, {},
  {}, {},
  {}, {},
  {}, {},
  {}, {},
  {}, {},
  {}, {},
  {}, {},
  {}, {},
  {}, {},
  {}, {},
  {}, {},
  {}, {},
  {}, {},
  {}, {},
  {}, {},
  {}, {},
  {}, {},
  {}, {},
  {}, {},
  {}, {},
  {}, {},
  {}, {},
  {}, {},
  {}, {},
  {}, {},
  {}, {},
  {}, {},
  {}, {},
  {}, {},
  {}, {},
  {}, {},
  {}, {},
  {}, {},
  {}, {},
  {}, {},
  {}, {},
  {}, {},
  {}, {},
  {}, {},
  {}, {},
  {}, {},
  {}, {},
  {}, {},
  {}, {},
  {}, {},
  {}, {},
  {}, {},
  {}, {},
  {}, {},
  {}, {},
  {}, {},
  {}, {},
  {}, {},
  {}, {},
  {}, {},
  {}, {},
  {}, {},
  {}, {},
  {}, {},
  {}, {},
  {}, {},
  {}, {},
  {}, {},
  {}, {},
  {}, {},
  {}, {},
  {}, {},
  {}, {},
  {}, {},
  {}, {},
  {}, {},
  {}, {},
  {}, {},
  {}, {},
  {}, {},
  {}, {},
  {}, {},
  {}, {},
  {}, {},
  {}, {},
  {}, {},
  {}, {},
  {}, {},
  {}, {},
  {}, {},
  {}, {},
  {}, {},
  {}, {},
  {}, {},
  {}, {},
  {}, {},
  {}, {},
  {}, {},
  {}, {},
  {}, {},
  {}, {},
  {}, {},
  {}, {},
  {}, {},
  {}, {},
  {}, {},
  {}, {},
  {}, {},
  {}, {},
  {}, {},
  {}, {},
  {}, {},
  {}, {},
  {}, {},
  {}, {},
  {}, {},
  {}, {},
  {}, {},
  {}, {},
  {}, {},
  {}, {},
  {}, {},
  {}, {},
  {}, {},
  {}, {},
  {}, {},
  {}, {},
  {}, {},
  {}, {},
  {}, {},
  {}, {},
  {}, {},
  {}, {},
  {}, {},
  {}, {},
  {}, {},
  {}, {},
  {}, {},
  {}, {},
  {}, {},
  {}, {},
  {}, {},
  {}, {},
  {}, {},
  {}, {},
  {}, {},
  {}, {},
  {}, {},
  {}, {},
  {}, {},
  {}, {},
  {}, {},
  {}, {},
  {}, {},
  {}, {},
  {}, {},
  {}, {},
  {}, {},
  {}, {},
  {}, {},
  {}, {},
  {}, {},
  {}, {},
  {}, {},
  {}, {},
  {}, {},
  {}, {},
  {}, {},
  {}, {},
  {}, {},
  {}, {},
  {}, {},
  {}, {},
  {}, {},
  {}, {},
  {}, {},
  {}, {},
  {}, {},
  {}, {},
  {}, {},
  {}, {},
  {}, {},
  {}, {},
  {}, {},
  {}, {},
  {}, {},
  {}, {},
  {}, {},
  {}, {},
  {}, {},
  {}, {},
  {}, {},
  {}, {},
  {}, {},
  {}, {},
  {}, {},
  {}, {},
  {}, {},
  {}, {},
  {}, {},
  {}, {},
  {}, {},
  {}, {},
  {}, {},
  {}, {},
  {}, {},
  {}, {},
  {}, {},
  {}, {},
  {}, {},
  {}, {},
  {}, {},
  {}, {},
  {}, {},
  {}, {},
  {}, {},
  {}, {},
  {}, {},
  {}, {},
  {}, {},
  {}, {},
  {}, {},
  {}, {},
  {}, {},
  {}, {},
  {}, {},
  {}, {},
  {}, {},
  {}, {},
  {}, {},
  {}, {},
  {}, {},
  {}, {},
  {}, {},
  {}, {},
  {}, {},
  {}, {},
  {}, {},
  {}, {},
  {}, {},
  {}, {},
  {}, {},
  {}, {},
  {}, {},
  {}, {},
  {}, {},
  {}, {},
  {}, {},
  {}, {},
  {}, {},
  {}, {},
  {}, {},
  {}, {},
  {}, {},
  {}, {},
  {}, {},
  {}, {},
  {}, {},
  {}, {},
  {}, {},
  {}, {},
  {}, {},
  {}, {},
  {}, {},
  {}, {},
  {}, {},
  {}, {},
  {}, {},
  {}, {},
  {}, {},
  {}, {},
  {}, {},
  {}, {},
  {}, {},
  {}, {},
  {}, {},
  {}, {},
  {}, {},
  {}, {},
  {}, {},
  {}, {},
  {}, {},
  {}, {},
  {}, {},
  {}, {},
  {}, {},
  {}, {},
  {}, {},
  {}, {},
  {}, {},
  {}, {},
  {}, {},
  {}, {},
  {}, {},
  {}, {},
  {}, {},
  {}, {},
  {}, {},
  {}, {},
  {}, {},
  {}, {},
  {}, {},
  {}, {},
  {}, {},
  {}, {},
  {}, {},
  {}, {},
  {}, {},
  {}, {},
  {}, {},
  {}, {},
  {}, {},
  {}, {},
  {}, {},
  {}, {}
]);
